Nb of jobs, Nb of Machines, Time seed, Machine seed, Upper bound, Lower bound
3,6,-1,-1,-1,-1
Times
44,27,81,67,36,45
60,39,63,15,93,82
11,35,9,84,28,93
Machines
4,6,3,1,5,2
3,2,6,4,5,1
1,5,6,2,4,3
